New structure                           
   1.00000000000000     
     6.7251970474100498   -0.0223277717201721    0.0000011006485440
     2.9618893790249978    6.0378791940876573   -0.0000011423154983
    -4.8435434335379091   -3.0077745278325696    3.5668127673272072
   O    V    Bi
     8     2     2
Direct
  0.7016181429470888  0.3415040638694888  0.6357734690291500
  0.2057305658403542  0.0658446149179373  0.8642264719708487
  0.8415040638694892  0.7057305948403457  0.6398859209224073
  0.5658446149179374  0.2016181429470890  0.8601140200775914
  0.2983818570529114  0.6584959361305108  0.3642265309708497
  0.7942694051596543  0.9341553250820577  0.1357735280291516
  0.1584959961305088  0.2942694051596468  0.3601140200775917
  0.4341553550820604  0.7983818570529112  0.1398859209224073
  0.3750000000000000  0.1250000000000000  0.2500000000000000
  0.6250000000000000  0.8750000000000000  0.7500000000000000
  0.8750000000000000  0.6250000000000000  0.2500000000000000
  0.1250000000000000  0.3750000000000000  0.7500000000000000
 
  0.00000000E+00  0.00000000E+00  0.00000000E+00
  0.00000000E+00  0.00000000E+00  0.00000000E+00
  0.00000000E+00  0.00000000E+00  0.00000000E+00
  0.00000000E+00  0.00000000E+00  0.00000000E+00
  0.00000000E+00  0.00000000E+00  0.00000000E+00
  0.00000000E+00  0.00000000E+00  0.00000000E+00
  0.00000000E+00  0.00000000E+00  0.00000000E+00
  0.00000000E+00  0.00000000E+00  0.00000000E+00
  0.00000000E+00  0.00000000E+00  0.00000000E+00
  0.00000000E+00  0.00000000E+00  0.00000000E+00
  0.00000000E+00  0.00000000E+00  0.00000000E+00
  0.00000000E+00  0.00000000E+00  0.00000000E+00
