New structure                           
   1.00000000000000     
     6.7251293188700911   -0.0223517797646194    0.0000007034312677
     2.9618378296229739    6.0378291321214022   -0.0000007451035369
    -4.8434835850243267   -3.0077378302756128    3.5667974329531877
   O    V    Bi
     8     2     2
Direct
  0.7016174051530559  0.3415125421363023  0.6357779124864728
  0.2057346006498380  0.0658394336665820  0.8642220285135259
  0.8415125421363020  0.7057346296498299  0.6398951369832464
  0.5658394336665825  0.2016174051530560  0.8601048040167523
  0.2983825948469440  0.6584874578636980  0.3642220875135276
  0.7942653703501701  0.9341605063334125  0.1357779714864739
  0.1584875178636956  0.2942653703501631  0.3601048040167524
  0.4341605363334154  0.7983825948469441  0.1398951369832463
  0.3750000000000000  0.1250000000000000  0.2500000000000000
  0.6250000000000000  0.8750000000000000  0.7500000000000000
  0.8750000000000000  0.6250000000000000  0.2500000000000000
  0.1250000000000000  0.3750000000000000  0.7500000000000000
 
  0.00000000E+00  0.00000000E+00  0.00000000E+00
  0.00000000E+00  0.00000000E+00  0.00000000E+00
  0.00000000E+00  0.00000000E+00  0.00000000E+00
  0.00000000E+00  0.00000000E+00  0.00000000E+00
  0.00000000E+00  0.00000000E+00  0.00000000E+00
  0.00000000E+00  0.00000000E+00  0.00000000E+00
  0.00000000E+00  0.00000000E+00  0.00000000E+00
  0.00000000E+00  0.00000000E+00  0.00000000E+00
  0.00000000E+00  0.00000000E+00  0.00000000E+00
  0.00000000E+00  0.00000000E+00  0.00000000E+00
  0.00000000E+00  0.00000000E+00  0.00000000E+00
  0.00000000E+00  0.00000000E+00  0.00000000E+00
