New structure                           
   1.00000000000000     
     6.7651238446527007   -0.0109795163886990    0.0128302190978663
    -3.0181111381045653    6.0545872146921313    0.0128302190940632
     1.9283008724542083    3.1101826736109666    3.6137947476458034
   O    V    Bi
     8     2     2
Direct
  0.2991174191710225  0.7186004030346180  0.6366371284660313
  0.9328241541294325  0.8268874599902362  0.8848276968747602
  0.7813995969653820  0.2008825668289835  0.8633628715339687
  0.6731125400097638  0.5671758458705675  0.6151723031252398
  0.7008825808289847  0.2813995969653820  0.3633628715339688
  0.0671758538705681  0.1731125400097638  0.1151722881252423
  0.2186004180346157  0.7991174191710153  0.1366371134660263
  0.3268874599902361  0.4328241541294396  0.3848276968747601
  0.1188471028049030  0.3811528971950970  0.7500000000000000
  0.8811528971950970  0.6188471028049030  0.2500000000000000
  0.6150886903254206  0.8849113096745794  0.7500000000000000
  0.3849112806745807  0.1150887193254264  0.2500000000000000
 
  0.00000000E+00  0.00000000E+00  0.00000000E+00
  0.00000000E+00  0.00000000E+00  0.00000000E+00
  0.00000000E+00  0.00000000E+00  0.00000000E+00
  0.00000000E+00  0.00000000E+00  0.00000000E+00
  0.00000000E+00  0.00000000E+00  0.00000000E+00
  0.00000000E+00  0.00000000E+00  0.00000000E+00
  0.00000000E+00  0.00000000E+00  0.00000000E+00
  0.00000000E+00  0.00000000E+00  0.00000000E+00
  0.00000000E+00  0.00000000E+00  0.00000000E+00
  0.00000000E+00  0.00000000E+00  0.00000000E+00
  0.00000000E+00  0.00000000E+00  0.00000000E+00
  0.00000000E+00  0.00000000E+00  0.00000000E+00
