New structure                           
   1.00000000000000     
     6.7651247353692110   -0.0110489745713920    0.0128828671679042
    -3.0181737473446630    6.0545571262296738    0.0128828671641026
     1.9282969945795210    3.1101764189342052    3.6139490118840545
   O    V    Bi
     8     2     2
Direct
  0.2991175035802057  0.7185987555775450  0.6366354681015730
  0.9328259171044200  0.8268896733883534  0.8848267358064107
  0.7814012444224550  0.2008824824198003  0.8633645318984270
  0.6731103266116466  0.5671740828955800  0.6151732641935893
  0.7008824964198015  0.2814012444224548  0.3633645318984270
  0.0671740908955805  0.1731103266116466  0.1151732491935912
  0.2185987705775431  0.7991175035801985  0.1366354531015681
  0.3268896733883534  0.4328259171044202  0.3848267358064111
  0.1188526855660687  0.3811473144339313  0.7500000000000000
  0.8811473144339312  0.6188526855660688  0.2500000000000000
  0.6150923218169674  0.8849076781830326  0.7500000000000000
  0.3849076491830339  0.1150923508169734  0.2500000000000000
 
  0.00000000E+00  0.00000000E+00  0.00000000E+00
  0.00000000E+00  0.00000000E+00  0.00000000E+00
  0.00000000E+00  0.00000000E+00  0.00000000E+00
  0.00000000E+00  0.00000000E+00  0.00000000E+00
  0.00000000E+00  0.00000000E+00  0.00000000E+00
  0.00000000E+00  0.00000000E+00  0.00000000E+00
  0.00000000E+00  0.00000000E+00  0.00000000E+00
  0.00000000E+00  0.00000000E+00  0.00000000E+00
  0.00000000E+00  0.00000000E+00  0.00000000E+00
  0.00000000E+00  0.00000000E+00  0.00000000E+00
  0.00000000E+00  0.00000000E+00  0.00000000E+00
  0.00000000E+00  0.00000000E+00  0.00000000E+00
